29909
1 0 1 0 0 1 1 1 1 1 0 1 0 0 1 0 0 1 0 0 1 0 0 0 1 0 0 0 0 0 
20 11 20 11 20 11 11 11 20 11 11 20 20 20 11 20 11 11 11 11 20 11 20 20 20 20 20 24 24 24 24 24 20 24 8 8 24 24 24 8 0 8 24 8 24 0 0 20 0 8 0 8 0 0 8 8 0 0 0 8 0 24 8 0 0 0 24 0 24 0 8 6 24 17 17 17 0 8 17 17 6 17 6 17 17 17 17 17 8 17 17 9 17 9 7 9 7 7 7 6 6 7 7 7 7 7 7 7 7 7 7 7 2 2 2 9 9 9 9 9 5 2 5 2 6 7 5 9 2 5 5 5 5 5 2 2 2 5 2 2 5 2 2 2 14 5 5 5 14 5 
